# 31151
param n := 25;
param s := 1;
set E :=  (0,1) (0,22) (1,3) (1,10) (1,17) (2,5) (2,21) (3,6) (3,17) (4,8) (4,10) (4,12) (4,16) (4,22) (5,13) (5,17) (5,19) (6,10) (7,13) (7,19) (8,24) (9,11) (9,22) (9,23) (10,15) (10,20) (11,15) (11,16) (11,21) (12,24) (13,14) (13,20) (13,21) (15,24) (16,18) (17,22) (19,24);
